p cnf 166 351
e 1 2 3 4 5 6 7 8 9 10 11 12 13 14 15 16 17 18 19 20 21 22 23 24 25 26 27 28 29 30 31 32 33 34 35 36 37 38 39 40 41 42 43 44 45 46 47 48 49 50 51 52 53 54 55 56 57 58 59 60 61 62 63 64 65 66 0
a 67 68 69 0
e 70 71 72 73 74 75 76 77 78 79 80 81 82 83 84 85 86 87 88 89 90 91 92 93 94 95 96 97 98 99 100 101 102 103 104 105 106 107 108 109 110 111 112 113 114 115 116 117 118 119 120 121 122 123 124 125 126 127 128 129 130 131 132 133 134 135 136 137 138 139 140 141 142 143 144 145 146 147 148 149 150 151 152 153 154 155 156 157 158 159 160 161 162 163 164 165 166 0
100 0
-157 0
-2 0
-5 0
-18 0
-29 0
-44 0
95 0
-110 0
-101 0
-4 0
-35 0
-41 0
51 0
1 0
-147 0
-32 0
49 0
141 0
142 0
146 0
-109 0
-166 0
-12 0
48 0
-64 0
97 0
-61 0
-160 0
-14 0
96 0
-113 0
-156 0
-13 0
143 0
-9 0
-159 0
-17 0
-3 0
-11 0
-19 0
-52 0
-114 0
-59 0
-154 0
144 0
46 0
47 0
140 0
94 0
99 0
161 0
-65 0
-10 0
50 0
-158 0
-111 0
-6 0
-7 0
-112 0
45 0
145 0
-38 0
-108 0
98 0
-62 0
-8 0
-15 0
-155 0
-63 0
-16 0
-60 0
-66 20 0
-115 66 0
-28 77 0
-31 80 0
-34 83 0
-37 86 0
-40 89 0
-43 92 0
-77 123 0
-80 126 0
-83 129 0
-86 132 0
-89 135 0
-92 138 0
-78 124 0
-81 127 0
-84 130 0
-87 133 0
-90 136 0
-93 139 0
-77 -78 0
-80 -81 0
-83 -84 0
-86 -87 0
-89 -90 0
-92 -93 0
-123 -124 0
-126 -127 0
-129 -130 0
-132 -133 0
-135 -136 0
-138 -139 0
-27 28 0
27 -28 0
-30 31 0
30 -31 0
-33 34 0
33 -34 0
-36 37 0
36 -37 0
-39 40 0
39 -40 0
-42 43 0
42 -43 0
-76 77 78 0
76 -77 0
76 -78 0
-79 80 81 0
79 -80 0
79 -81 0
-82 83 84 0
82 -83 0
82 -84 0
-85 86 87 0
85 -86 0
85 -87 0
-88 89 90 0
88 -89 0
88 -90 0
-91 92 93 0
91 -92 0
91 -93 0
-122 123 124 0
122 -123 0
122 -124 0
-125 126 127 0
125 -126 0
125 -127 0
-128 129 130 0
128 -129 0
128 -130 0
-131 132 133 0
131 -132 0
131 -133 0
-134 135 136 0
134 -135 0
134 -136 0
-137 138 139 0
137 -138 0
137 -139 0
20 -28 0
20 -31 0
20 -34 0
20 -37 0
20 -40 0
20 -43 0
66 28 -77 0
66 31 -80 0
66 34 -83 0
66 37 -86 0
66 40 -89 0
66 43 -92 0
115 77 -123 0
115 80 -126 0
115 83 -129 0
115 86 -132 0
115 89 -135 0
115 92 -138 0
66 -78 0
66 -81 0
66 -84 0
66 -87 0
66 -90 0
66 -93 0
115 78 -124 0
115 81 -127 0
115 84 -130 0
115 87 -133 0
115 90 -136 0
115 93 -139 0
21 -28 0
22 -31 0
23 -34 0
24 -37 0
25 -40 0
26 -43 0
116 77 -123 0
78 -124 0
117 80 -126 0
81 -127 0
118 83 -129 0
84 -130 0
119 86 -132 0
87 -133 0
120 89 -135 0
90 -136 0
121 92 -138 0
93 -139 0
70 -78 0
28 -77 0
71 -81 0
31 -80 0
72 -84 0
34 -83 0
73 -87 0
37 -86 0
74 -90 0
40 -89 0
75 -93 0
43 -92 0
162 -123 -126 0
-162 123 0
-162 126 0
163 -123 -129 -132 0
-163 123 0
-163 129 0
-163 132 0
164 -135 -129 -126 0
-164 135 0
-164 129 0
-164 126 0
165 -135 -129 -132 0
-165 135 0
-165 129 0
-165 132 0
162 163 164 165 0
-21 53 0
21 -53 0
-22 54 0
-53 54 0
22 -54 53 0
-22 -53 0
-23 55 0
-54 55 0
23 -55 54 0
-23 -54 0
-24 56 0
-55 56 0
24 -56 55 0
-24 -55 0
-25 57 0
-56 57 0
25 -57 56 0
-25 -56 0
-26 58 0
-57 58 0
26 -58 57 0
-26 -57 0
-116 148 0
116 -148 0
-117 149 0
-148 149 0
117 -149 148 0
-117 -148 0
-118 150 0
-149 150 0
118 -150 149 0
-118 -149 0
-119 151 0
-150 151 0
119 -151 150 0
-119 -150 0
-120 152 0
-151 152 0
120 -152 151 0
-120 -151 0
-121 153 0
-152 153 0
121 -153 152 0
-121 -152 0
-70 102 0
70 -102 0
-71 103 0
-102 103 0
71 -103 102 0
-71 -102 0
-72 104 0
-103 104 0
72 -104 103 0
-72 -103 0
-73 105 0
-104 105 0
73 -105 104 0
-73 -104 0
-74 106 0
-105 106 0
74 -106 105 0
-74 -105 0
-75 107 0
-106 107 0
75 -107 106 0
-75 -106 0
-20 58 0
-115 153 0
-66 107 0
-21 28 0
-21 20 0
-22 31 0
-22 20 0
-23 34 0
-23 20 0
-24 37 0
-24 20 0
-25 40 0
-25 20 0
-26 43 0
-26 20 0
-116 123 0
-116 -76 0
-116 115 0
-117 126 0
-117 -79 0
-117 115 0
-118 129 0
-118 -82 0
-118 115 0
-119 132 0
-119 -85 0
-119 115 0
-120 135 0
-120 -88 0
-120 115 0
-121 138 0
-121 -91 0
-121 115 0
-70 78 0
-70 -27 0
-70 66 0
-71 81 0
-71 -30 0
-71 66 0
-72 84 0
-72 -33 0
-72 66 0
-73 87 0
-73 -36 0
-73 66 0
-74 90 0
-74 -39 0
-74 66 0
-75 93 0
-75 -42 0
-75 66 0
-66 27 -67 -68 -69 70 0
-66 30 67 -68 -69 71 0
-66 33 -67 68 -69 72 0
-66 36 67 68 -69 73 0
-66 39 -67 -68 69 74 0
-66 42 67 -68 69 75 0
